Route #1: 1 31 39 40 6 46 27 56 58 35 18 16 1 
Route #2: 1 48 47 19 55 50 13 28 1 
Route #3: 1 11 52 57 17 22 7 9 1 
Route #4: 1 1 51 23 42 24 25 1 
Route #5: 1 34 49 3 15 33 14 44 1 
Route #6: 1 60 4 26 43 32 30 10 1 
Route #7: 1 12 38 45 1 
Route #8: 1 59 37 2 8 41 20 21 1 
Route #9: 1 29 36 54 5 53 1 

Cost 1782.85
Time 0.5217


 * Another infos *

 Iterations: 61 Time: 0.5217 sec - 0.0087 min - 0.0001 horas
0.0000 h 0.0087 min
Problem dimension: 61
